NAME : 0
COMMENT : CVRP Instance
TYPE : CVRP
DIMENSION : 601
EDGE_WEIGHT_TYPE : EUC_2D
CAPACITY : 180
NODE_COORD_SECTION
1	102.0	187.0
2	24.0	73.0
3	77.0	375.0
4	427.0	295.0
5	62.0	87.0
6	947.0	487.0
7	50.0	82.0
8	44.0	49.0
9	74.0	127.0
10	37.0	57.0
11	67.0	56.0
12	83.0	415.0
13	63.0	60.0
14	35.0	460.0
15	131.0	319.0
16	33.0	444.0
17	63.0	39.0
18	41.0	38.0
19	552.0	484.0
20	91.0	162.0
21	22.0	155.0
22	48.0	488.0
23	73.0	280.0
24	31.0	28.0
25	71.0	62.0
26	37.0	492.0
27	172.0	347.0
28	34.0	74.0
29	277.0	297.0
30	11.0	89.0
31	33.0	89.0
32	33.0	81.0
33	721.0	603.0
34	63.0	79.0
35	17.0	37.0
36	317.0	300.0
37	130.0	406.0
38	21.0	44.0
39	81.0	44.0
40	105.0	187.0
41	226.0	328.0
42	26.0	55.0
43	64.0	5.0
44	8.0	37.0
45	193.0	292.0
46	32.0	109.0
47	57.0	383.0
48	37.0	214.0
49	987.0	544.0
50	203.0	284.0
51	105.0	372.0
52	40.0	79.0
53	86.0	83.0
54	103.0	278.0
55	53.0	121.0
56	108.0	221.0
57	75.0	127.0
58	160.0	375.0
59	162.0	337.0
60	224.0	321.0
61	903.0	559.0
62	12.0	85.0
63	95.0	133.0
64	28.0	84.0
65	108.0	360.0
66	23.0	76.0
67	42.0	140.0
68	26.0	55.0
69	44.0	165.0
70	287.0	288.0
71	139.0	364.0
72	235.0	361.0
73	190.0	240.0
74	63.0	80.0
75	35.0	55.0
76	145.0	1000.0
77	17.0	110.0
78	55.0	10.0
79	84.0	155.0
80	278.0	513.0
81	42.0	79.0
82	899.0	533.0
83	33.0	67.0
84	937.0	481.0
85	74.0	92.0
86	934.0	482.0
87	17.0	11.0
88	45.0	54.0
89	61.0	109.0
90	77.0	95.0
91	149.0	274.0
92	53.0	128.0
93	62.0	366.0
94	155.0	217.0
95	62.0	162.0
96	73.0	588.0
97	53.0	77.0
98	229.0	354.0
99	215.0	324.0
100	28.0	49.0
101	53.0	326.0
102	48.0	117.0
103	73.0	206.0
104	73.0	83.0
105	82.0	105.0
106	14.0	61.0
107	224.0	321.0
108	65.0	137.0
109	11.0	43.0
110	85.0	169.0
111	48.0	406.0
112	421.0	309.0
113	911.0	512.0
114	66.0	276.0
115	71.0	874.0
116	156.0	342.0
117	140.0	365.0
118	153.0	298.0
119	31.0	62.0
120	109.0	373.0
121	87.0	112.0
122	59.0	643.0
123	114.0	398.0
124	89.0	199.0
125	101.0	275.0
126	87.0	368.0
127	165.0	333.0
128	34.0	82.0
129	67.0	118.0
130	13.0	38.0
131	89.0	198.0
132	855.0	513.0
133	62.0	134.0
134	111.0	277.0
135	59.0	86.0
136	112.0	942.0
137	68.0	77.0
138	87.0	247.0
139	153.0	344.0
140	41.0	442.0
141	32.0	73.0
142	83.0	329.0
143	40.0	61.0
144	20.0	28.0
145	287.0	513.0
146	46.0	488.0
147	54.0	105.0
148	65.0	90.0
149	61.0	57.0
150	58.0	55.0
151	30.0	99.0
152	10.0	85.0
153	123.0	267.0
154	80.0	79.0
155	189.0	394.0
156	137.0	203.0
157	833.0	461.0
158	47.0	38.0
159	64.0	205.0
160	27.0	83.0
161	102.0	175.0
162	24.0	77.0
163	55.0	53.0
164	14.0	46.0
165	562.0	276.0
166	20.0	149.0
167	70.0	348.0
168	92.0	69.0
169	44.0	28.0
170	149.0	253.0
171	27.0	76.0
172	82.0	57.0
173	38.0	81.0
174	230.0	330.0
175	451.0	395.0
176	883.0	535.0
177	58.0	302.0
178	80.0	554.0
179	5.0	42.0
180	58.0	41.0
181	56.0	462.0
182	98.0	131.0
183	66.0	44.0
184	121.0	247.0
185	18.0	165.0
186	92.0	66.0
187	26.0	59.0
188	42.0	76.0
189	85.0	33.0
190	202.0	313.0
191	226.0	353.0
192	75.0	77.0
193	3.0	44.0
194	31.0	115.0
195	146.0	278.0
196	57.0	24.0
197	35.0	150.0
198	19.0	53.0
199	60.0	120.0
200	26.0	24.0
201	53.0	146.0
202	32.0	83.0
203	66.0	147.0
204	60.0	85.0
205	75.0	80.0
206	31.0	79.0
207	923.0	555.0
208	145.0	357.0
209	86.0	40.0
210	247.0	538.0
211	104.0	182.0
212	69.0	23.0
213	276.0	291.0
214	25.0	29.0
215	197.0	416.0
216	24.0	63.0
217	139.0	354.0
218	91.0	385.0
219	60.0	15.0
220	319.0	291.0
221	21.0	44.0
222	26.0	62.0
223	138.0	319.0
224	74.0	503.0
225	314.0	291.0
226	143.0	326.0
227	922.0	448.0
228	49.0	484.0
229	209.0	296.0
230	157.0	287.0
231	44.0	85.0
232	75.0	134.0
233	48.0	298.0
234	298.0	278.0
235	40.0	488.0
236	38.0	57.0
237	66.0	100.0
238	39.0	76.0
239	89.0	199.0
240	81.0	97.0
241	70.0	101.0
242	37.0	601.0
243	43.0	73.0
244	30.0	136.0
245	751.0	451.0
246	116.0	310.0
247	64.0	615.0
248	139.0	243.0
249	32.0	3.0
250	117.0	186.0
251	415.0	288.0
252	397.0	326.0
253	11.0	77.0
254	66.0	86.0
255	278.0	296.0
256	49.0	60.0
257	414.0	278.0
258	99.0	190.0
259	80.0	49.0
260	35.0	71.0
261	185.0	210.0
262	904.0	488.0
263	88.0	286.0
264	52.0	62.0
265	165.0	387.0
266	43.0	100.0
267	29.0	468.0
268	85.0	203.0
269	51.0	110.0
270	218.0	339.0
271	57.0	187.0
272	29.0	89.0
273	142.0	377.0
274	60.0	188.0
275	255.0	284.0
276	407.0	304.0
277	40.0	200.0
278	57.0	142.0
279	85.0	151.0
280	49.0	165.0
281	70.0	439.0
282	62.0	97.0
283	254.0	331.0
284	166.0	317.0
285	49.0	597.0
286	38.0	90.0
287	0.0	50.0
288	49.0	213.0
289	118.0	429.0
290	86.0	336.0
291	925.0	482.0
292	86.0	254.0
293	74.0	123.0
294	22.0	45.0
295	142.0	225.0
296	140.0	334.0
297	23.0	64.0
298	101.0	222.0
299	49.0	512.0
300	56.0	40.0
301	70.0	56.0
302	56.0	183.0
303	142.0	268.0
304	153.0	334.0
305	35.0	89.0
306	48.0	15.0
307	175.0	238.0
308	100.0	405.0
309	68.0	125.0
310	225.0	343.0
311	287.0	639.0
312	28.0	202.0
313	275.0	255.0
314	68.0	157.0
315	91.0	391.0
316	46.0	90.0
317	70.0	81.0
318	18.0	75.0
319	39.0	93.0
320	52.0	513.0
321	53.0	75.0
322	979.0	434.0
323	47.0	152.0
324	151.0	277.0
325	150.0	356.0
326	48.0	55.0
327	72.0	379.0
328	99.0	391.0
329	26.0	97.0
330	72.0	81.0
331	97.0	333.0
332	128.0	188.0
333	216.0	291.0
334	66.0	55.0
335	62.0	813.0
336	934.0	430.0
337	70.0	102.0
338	183.0	280.0
339	47.0	11.0
340	82.0	132.0
341	52.0	236.0
342	48.0	52.0
343	72.0	96.0
344	46.0	82.0
345	78.0	65.0
346	50.0	28.0
347	84.0	443.0
348	85.0	208.0
349	70.0	91.0
350	150.0	364.0
351	93.0	149.0
352	45.0	47.0
353	62.0	136.0
354	756.0	585.0
355	105.0	188.0
356	109.0	258.0
357	44.0	24.0
358	48.0	22.0
359	173.0	268.0
360	957.0	523.0
361	28.0	74.0
362	150.0	309.0
363	87.0	68.0
364	112.0	259.0
365	256.0	297.0
366	441.0	439.0
367	42.0	73.0
368	372.0	625.0
369	49.0	27.0
370	169.0	319.0
371	55.0	56.0
372	38.0	115.0
373	936.0	532.0
374	126.0	232.0
375	402.0	343.0
376	147.0	335.0
377	46.0	330.0
378	38.0	36.0
379	181.0	379.0
380	90.0	166.0
381	70.0	112.0
382	79.0	106.0
383	63.0	67.0
384	34.0	41.0
385	1000.0	924.0
386	77.0	122.0
387	196.0	241.0
388	103.0	379.0
389	995.0	480.0
390	184.0	334.0
391	185.0	233.0
392	17.0	87.0
393	53.0	160.0
394	922.0	504.0
395	19.0	54.0
396	47.0	149.0
397	20.0	18.0
398	176.0	311.0
399	88.0	34.0
400	282.0	282.0
401	104.0	292.0
402	224.0	272.0
403	62.0	144.0
404	102.0	191.0
405	97.0	329.0
406	77.0	129.0
407	25.0	6.0
408	19.0	67.0
409	23.0	75.0
410	52.0	151.0
411	224.0	225.0
412	3.0	46.0
413	201.0	349.0
414	232.0	325.0
415	92.0	118.0
416	116.0	399.0
417	60.0	39.0
418	22.0	62.0
419	23.0	451.0
420	55.0	117.0
421	150.0	229.0
422	87.0	222.0
423	167.0	338.0
424	9.0	47.0
425	251.0	294.0
426	25.0	35.0
427	55.0	136.0
428	84.0	56.0
429	29.0	23.0
430	51.0	49.0
431	174.0	316.0
432	31.0	158.0
433	27.0	135.0
434	62.0	177.0
435	170.0	302.0
436	114.0	305.0
437	89.0	269.0
438	20.0	72.0
439	52.0	129.0
440	111.0	338.0
441	16.0	31.0
442	26.0	28.0
443	58.0	185.0
444	163.0	319.0
445	211.0	242.0
446	60.0	128.0
447	159.0	318.0
448	159.0	301.0
449	138.0	365.0
450	114.0	400.0
451	28.0	62.0
452	26.0	82.0
453	88.0	111.0
454	144.0	293.0
455	64.0	361.0
456	88.0	594.0
457	424.0	289.0
458	289.0	507.0
459	52.0	85.0
460	42.0	74.0
461	976.0	471.0
462	50.0	51.0
463	36.0	181.0
464	135.0	398.0
465	924.0	471.0
466	58.0	112.0
467	105.0	281.0
468	122.0	218.0
469	146.0	412.0
470	44.0	384.0
471	64.0	131.0
472	76.0	361.0
473	88.0	392.0
474	21.0	62.0
475	38.0	481.0
476	21.0	57.0
477	301.0	254.0
478	33.0	147.0
479	202.0	267.0
480	122.0	191.0
481	25.0	64.0
482	112.0	323.0
483	44.0	9.0
484	62.0	173.0
485	49.0	29.0
486	39.0	83.0
487	53.0	459.0
488	80.0	254.0
489	157.0	299.0
490	62.0	55.0
491	114.0	316.0
492	36.0	109.0
493	7.0	32.0
494	27.0	38.0
495	27.0	75.0
496	39.0	183.0
497	50.0	69.0
498	83.0	246.0
499	49.0	135.0
500	59.0	64.0
501	136.0	319.0
502	10.0	87.0
503	153.0	330.0
504	46.0	91.0
505	160.0	318.0
506	87.0	113.0
507	59.0	95.0
508	21.0	24.0
509	47.0	210.0
510	52.0	0.0
511	71.0	99.0
512	154.0	421.0
513	33.0	55.0
514	140.0	267.0
515	37.0	68.0
516	54.0	860.0
517	53.0	58.0
518	69.0	462.0
519	75.0	57.0
520	160.0	362.0
521	62.0	15.0
522	87.0	355.0
523	71.0	89.0
524	558.0	471.0
525	125.0	422.0
526	386.0	89.0
527	174.0	405.0
528	166.0	334.0
529	31.0	112.0
530	274.0	319.0
531	101.0	289.0
532	28.0	59.0
533	89.0	98.0
534	60.0	114.0
535	28.0	25.0
536	120.0	247.0
537	175.0	312.0
538	41.0	78.0
539	71.0	279.0
540	125.0	232.0
541	60.0	111.0
542	142.0	338.0
543	24.0	66.0
544	38.0	213.0
545	73.0	361.0
546	80.0	280.0
547	168.0	350.0
548	97.0	395.0
549	97.0	317.0
550	28.0	82.0
551	84.0	103.0
552	832.0	473.0
553	125.0	280.0
554	170.0	402.0
555	22.0	13.0
556	44.0	97.0
557	23.0	55.0
558	107.0	273.0
559	76.0	50.0
560	11.0	90.0
561	85.0	108.0
562	105.0	372.0
563	84.0	375.0
564	99.0	215.0
565	36.0	7.0
566	146.0	421.0
567	149.0	244.0
568	28.0	82.0
569	16.0	44.0
570	83.0	373.0
571	68.0	380.0
572	95.0	41.0
573	108.0	179.0
574	92.0	313.0
575	73.0	104.0
576	153.0	311.0
577	928.0	481.0
578	74.0	349.0
579	70.0	112.0
580	258.0	209.0
581	39.0	152.0
582	11.0	84.0
583	163.0	308.0
584	91.0	39.0
585	147.0	278.0
586	70.0	118.0
587	40.0	88.0
588	47.0	407.0
589	146.0	340.0
590	64.0	605.0
591	79.0	134.0
592	67.0	128.0
593	57.0	57.0
594	97.0	370.0
595	49.0	10.0
596	18.0	12.0
597	563.0	482.0
598	45.0	48.0
599	59.0	317.0
600	163.0	298.0
601	41.0	198.0
DEMAND_SECTION
1	0
2	1
3	3
4	2
5	2
6	2
7	2
8	7
9	8
10	6
11	10
12	8
13	8
14	8
15	3
16	4
17	4
18	7
19	2
20	8
21	4
22	7
23	6
24	10
25	8
26	9
27	4
28	5
29	6
30	1
31	6
32	3
33	5
34	6
35	1
36	10
37	2
38	1
39	4
40	9
41	4
42	1
43	2
44	8
45	2
46	8
47	4
48	5
49	1
50	6
51	1
52	1
53	8
54	10
55	6
56	8
57	9
58	6
59	1
60	5
61	7
62	6
63	5
64	3
65	3
66	7
67	9
68	4
69	5
70	10
71	6
72	1
73	6
74	9
75	8
76	2
77	1
78	7
79	10
80	5
81	4
82	1
83	4
84	4
85	5
86	7
87	8
88	9
89	7
90	5
91	2
92	9
93	5
94	10
95	6
96	9
97	6
98	4
99	4
100	10
101	7
102	2
103	3
104	1
105	10
106	4
107	10
108	9
109	5
110	2
111	6
112	5
113	4
114	8
115	7
116	4
117	8
118	7
119	1
120	2
121	5
122	1
123	2
124	4
125	5
126	9
127	3
128	10
129	10
130	3
131	7
132	4
133	5
134	4
135	1
136	4
137	9
138	2
139	8
140	10
141	6
142	3
143	10
144	1
145	2
146	3
147	8
148	1
149	8
150	10
151	6
152	5
153	4
154	1
155	8
156	4
157	6
158	2
159	6
160	5
161	8
162	3
163	6
164	3
165	2
166	2
167	3
168	4
169	5
170	4
171	10
172	7
173	2
174	4
175	10
176	9
177	10
178	5
179	10
180	3
181	5
182	6
183	8
184	3
185	6
186	8
187	6
188	7
189	6
190	9
191	9
192	10
193	7
194	1
195	7
196	7
197	4
198	8
199	3
200	10
201	1
202	2
203	10
204	1
205	9
206	10
207	8
208	9
209	7
210	7
211	5
212	8
213	3
214	5
215	6
216	5
217	5
218	8
219	2
220	5
221	7
222	8
223	7
224	4
225	1
226	8
227	8
228	4
229	7
230	3
231	5
232	1
233	6
234	10
235	6
236	8
237	7
238	7
239	9
240	4
241	7
242	9
243	8
244	6
245	7
246	3
247	10
248	1
249	8
250	6
251	7
252	9
253	4
254	6
255	5
256	2
257	8
258	7
259	6
260	6
261	2
262	7
263	6
264	4
265	5
266	4
267	4
268	8
269	2
270	5
271	6
272	4
273	9
274	4
275	2
276	1
277	4
278	4
279	10
280	2
281	8
282	3
283	2
284	4
285	10
286	7
287	5
288	2
289	4
290	1
291	5
292	6
293	9
294	4
295	7
296	5
297	7
298	3
299	7
300	7
301	4
302	5
303	9
304	10
305	5
306	4
307	6
308	10
309	6
310	8
311	7
312	6
313	7
314	2
315	6
316	8
317	7
318	8
319	9
320	10
321	3
322	4
323	4
324	9
325	3
326	7
327	2
328	1
329	3
330	7
331	3
332	2
333	5
334	1
335	3
336	9
337	3
338	8
339	10
340	1
341	5
342	2
343	7
344	1
345	4
346	3
347	7
348	1
349	10
350	7
351	8
352	10
353	1
354	2
355	1
356	2
357	9
358	9
359	9
360	6
361	10
362	2
363	8
364	3
365	7
366	3
367	4
368	2
369	5
370	10
371	5
372	9
373	2
374	3
375	8
376	10
377	4
378	8
379	9
380	9
381	3
382	8
383	4
384	2
385	5
386	3
387	7
388	10
389	5
390	9
391	7
392	1
393	2
394	4
395	7
396	5
397	1
398	8
399	2
400	3
401	3
402	8
403	2
404	7
405	1
406	5
407	6
408	8
409	2
410	6
411	1
412	9
413	4
414	10
415	5
416	9
417	8
418	10
419	4
420	10
421	4
422	6
423	6
424	8
425	9
426	5
427	2
428	9
429	7
430	9
431	6
432	4
433	5
434	1
435	7
436	3
437	6
438	2
439	7
440	8
441	4
442	7
443	6
444	1
445	1
446	4
447	5
448	4
449	6
450	5
451	7
452	3
453	9
454	7
455	9
456	1
457	5
458	4
459	7
460	5
461	3
462	2
463	7
464	2
465	1
466	5
467	6
468	8
469	3
470	8
471	8
472	2
473	4
474	6
475	7
476	3
477	9
478	10
479	6
480	4
481	8
482	8
483	1
484	9
485	10
486	3
487	1
488	4
489	7
490	6
491	6
492	10
493	10
494	6
495	4
496	6
497	6
498	3
499	6
500	2
501	7
502	8
503	8
504	2
505	1
506	5
507	7
508	6
509	9
510	9
511	2
512	7
513	9
514	10
515	8
516	6
517	9
518	6
519	10
520	5
521	7
522	3
523	2
524	1
525	10
526	9
527	1
528	10
529	3
530	10
531	6
532	6
533	6
534	2
535	7
536	6
537	7
538	8
539	8
540	1
541	10
542	1
543	9
544	6
545	4
546	8
547	4
548	3
549	3
550	3
551	9
552	9
553	4
554	6
555	2
556	4
557	4
558	9
559	3
560	2
561	9
562	9
563	7
564	4
565	4
566	10
567	5
568	6
569	10
570	7
571	4
572	6
573	6
574	1
575	10
576	8
577	2
578	8
579	3
580	3
581	8
582	1
583	7
584	8
585	10
586	8
587	6
588	7
589	6
590	9
591	8
592	9
593	10
594	10
595	2
596	8
597	1
598	6
599	5
600	4
601	8
DEPOT_SECTION
1
-1
EOF
